18775 16919 20129
18451 16888 20704
18174 16895 21108
19262 16871 19117
18116 19828 18895
17802 20022 18808
17663 19905 19497
15414 15543 21894
16382 16844 21813
16643 19486 20241
18118 18967 20506
18577 19458 18939
18214 17739 20931
16621 18545 21067
19182 16312 19391
19148 17092 19406
16933 20143 17776
18921 16715 19867
16848 18209 21225
17623 16684 21430
18986 17610 19661
16573 17663 21492
18040 19879 18964
17204 19867 19735
19114 18388 19094
19243 16907 19206
17721 18050 21144
16097 20131 18547
18218 18349 20726
18446 18586 20383
18138 17790 21000
17299 17240 21557
17686 16306 21406
17327 19668 20007
19291 17789 18781
18912 18931 18644
18150 18644 20657
17421 19376 20260
17953 17589 21257
16297 17696 21520
15089 15914 21897
18608 16095 20449
18105 19558 20026
18518 18947 19862
19364 17005 18157
17328 16753 21547
18417 17668 20719
18208 16115 21093
